&CONTROL
  calculation = 'scf',
  prefix = 'sic_vsi4h_0',
  outdir = './out/',
  pseudo_dir = '/home/kyou/q-e/pseudo/',
  tstress = .true.,
  tprnfor = .true.,
/
&SYSTEM
  ibrav = 0,
  nat = 35, ntyp = 3,
  ecutwfc = 60.0, 
  ecutrho = 480.0,
  occupations = 'smearing', smearing = 'gaussian', degauss = 0.01,
  nosym = .true.,
  noinv = .true.,
/
&ELECTRONS
  conv_thr = 1.0d-6,
  mixing_beta = 0.3,
/
&IONS
  ion_dynamics = 'bfgs',
/
ATOMIC_SPECIES
  Si  28.0855  Si.pbe-n-kjpaw_psl.1.0.0.UPF
  C   12.0107  C.pbe-n-kjpaw_psl.1.0.0.UPF
  H   1.00784  H.pbe-kjpaw_psl.1.0.0.UPF
CELL_PARAMETERS (angstrom)
  6.15319900 0.00000000 0.00000000
  0.00000000 5.32882700 0.00000000
  0.00000000 0.00000000 10.04813200
ATOMIC_POSITIONS (angstrom)
  Si  0.00000000 0.00000000 0.00000000
  Si  1.53830000 2.66441300 0.00000000
  Si  0.00000000 1.77627600 2.51203300
  Si  1.53830000 4.44068900 2.51203300
  Si  0.00000000 0.00000000 5.02406600
  Si  1.53830000 2.66441300 5.02406600
  Si  0.00000000 3.55255100 7.53609900
  Si  1.53830000 0.88813800 7.53609900
  Si  3.07660000 0.00000000 0.00000000
  Si  4.61489900 2.66441300 0.00000000
  Si  3.07660000 1.77627600 2.51203300
  Si  4.61489900 4.44068900 2.51203300
  Si  3.07660000 0.00000000 5.02406600
  Si  3.07660000 3.55255100 7.53609900
  Si  4.61489900 0.88813800 7.53609900
  C   0.00000000 1.77627600 0.62800800
  C   1.53830000 4.44068900 0.62800800
  C   0.00000000 0.00000000 3.14004100
  C   1.53830000 2.66441300 3.14004100
  C   0.00000000 3.55255100 5.65207400
  H   -0.88998131 3.03872000 5.28874085
  C   1.53830000 0.88813800 5.65207400
  C   0.00000000 0.00000000 8.16410800
  C   1.53830000 2.66441300 8.16410800
  C   3.07660000 1.77627600 0.62800800
  C   4.61489900 4.44068900 0.62800800
  C   3.07660000 0.00000000 3.14004100
  C   4.61489900 2.66441300 3.14004100
  H   4.61489900 2.66441300 4.23004100
  C   3.07660000 3.55255100 5.65207400
  H   3.96658112 3.03871978 5.28874069
  C   4.61489900 0.88813800 5.65207400
  H   4.61489900 1.91579986 5.28874069
  C   3.07660000 0.00000000 8.16410800
  C   4.61489900 2.66441300 8.16410800
