&CONTROL
  calculation = 'relax',
  prefix = 'sic_vsi4h_2',
  outdir = './out/',
  pseudo_dir = '/home/kyou/q-e/pseudo/',
  tstress = .true.,
  tprnfor = .true.,
/
&SYSTEM
  ibrav = 0,
  nat = 387, ntyp = 3,
  ecutwfc = 40.0, ecutrho = 320.0,
  occupations = 'smearing', smearing = 'gaussian', degauss = 0.01,
  nosym = .true.,
  noinv = .true.,
/
&ELECTRONS
  conv_thr = 1.0d-6,
  mixing_beta = 0.3,
/
&IONS
  ion_dynamics = 'bfgs',
/
ATOMIC_SPECIES
  Si  28.0855  Si.pbe-n-kjpaw_psl.1.0.0.UPF
  C   12.0107  C.pbe-n-kjpaw_psl.1.0.0.UPF
  H   1.00784  H.pbe-kjpaw_psl.1.0.0.UPF
CELL_PARAMETERS (angstrom)
  12.30639900 0.00000000 0.00000000
  0.00000000 15.98648100 0.00000000
  0.00000000 0.00000000 20.09626500
ATOMIC_POSITIONS (angstrom)
  Si  0.00000000 0.00000000 0.00000000
  Si  1.53830000 2.66441300 0.00000000
  Si  0.00000000 1.77627600 2.51203300
  Si  1.53830000 4.44068900 2.51203300
  Si  0.00000000 0.00000000 5.02406600
  Si  1.53830000 2.66441300 5.02406600
  Si  0.00000000 3.55255100 7.53609900
  Si  1.53830000 0.88813800 7.53609900
  Si  0.00000000 0.00000000 10.04813200
  Si  1.53830000 2.66441300 10.04813200
  Si  0.00000000 1.77627600 12.56016500
  Si  1.53830000 4.44068900 12.56016500
  Si  0.00000000 0.00000000 15.07219900
  Si  1.53830000 2.66441300 15.07219900
  Si  0.00000000 3.55255100 17.58423200
  Si  1.53830000 0.88813800 17.58423200
  Si  0.00000000 5.32882700 0.00000000
  Si  1.53830000 7.99324000 0.00000000
  Si  0.00000000 7.10510300 2.51203300
  Si  1.53830000 9.76951600 2.51203300
  Si  0.00000000 5.32882700 5.02406600
  Si  1.53830000 7.99324000 5.02406600
  Si  0.00000000 8.88137800 7.53609900
  Si  1.53830000 6.21696500 7.53609900
  Si  0.00000000 5.32882700 10.04813200
  Si  1.53830000 7.99324000 10.04813200
  Si  0.00000000 7.10510300 12.56016500
  Si  1.53830000 9.76951600 12.56016500
  Si  0.00000000 5.32882700 15.07219900
  Si  1.53830000 7.99324000 15.07219900
  Si  0.00000000 8.88137800 17.58423200
  Si  1.53830000 6.21696500 17.58423200
  Si  0.00000000 10.65765400 0.00000000
  Si  1.53830000 13.32206700 0.00000000
  Si  0.00000000 12.43392900 2.51203300
  Si  1.53830000 15.09834300 2.51203300
  Si  0.00000000 10.65765400 5.02406600
  Si  1.53830000 13.32206700 5.02406600
  Si  0.00000000 14.21020500 7.53609900
  Si  1.53830000 11.54579200 7.53609900
  Si  0.00000000 10.65765400 10.04813200
  Si  1.53830000 13.32206700 10.04813200
  Si  0.00000000 12.43392900 12.56016500
  Si  1.53830000 15.09834300 12.56016500
  Si  0.00000000 10.65765400 15.07219900
  Si  1.53830000 13.32206700 15.07219900
  Si  0.00000000 14.21020500 17.58423200
  Si  1.53830000 11.54579200 17.58423200
  Si  3.07660000 0.00000000 0.00000000
  Si  4.61489900 2.66441300 0.00000000
  Si  3.07660000 1.77627600 2.51203300
  Si  4.61489900 4.44068900 2.51203300
  Si  3.07660000 0.00000000 5.02406600
  Si  4.61489900 2.66441300 5.02406600
  Si  3.07660000 3.55255100 7.53609900
  Si  4.61489900 0.88813800 7.53609900
  Si  3.07660000 0.00000000 10.04813200
  Si  4.61489900 2.66441300 10.04813200
  Si  3.07660000 1.77627600 12.56016500
  Si  4.61489900 4.44068900 12.56016500
  Si  3.07660000 0.00000000 15.07219900
  Si  4.61489900 2.66441300 15.07219900
  Si  3.07660000 3.55255100 17.58423200
  Si  4.61489900 0.88813800 17.58423200
  Si  3.07660000 5.32882700 0.00000000
  Si  4.61489900 7.99324000 0.00000000
  Si  3.07660000 7.10510300 2.51203300
  Si  4.61489900 9.76951600 2.51203300
  Si  3.07660000 5.32882700 5.02406600
  Si  4.61489900 7.99324000 5.02406600
  Si  3.07660000 8.88137800 7.53609900
  Si  4.61489900 6.21696500 7.53609900
  Si  3.07660000 5.32882700 10.04813200
  Si  4.61489900 7.99324000 10.04813200
  Si  3.07660000 7.10510300 12.56016500
  Si  4.61489900 9.76951600 12.56016500
  Si  3.07660000 5.32882700 15.07219900
  Si  4.61489900 7.99324000 15.07219900
  Si  3.07660000 8.88137800 17.58423200
  Si  4.61489900 6.21696500 17.58423200
  Si  3.07660000 10.65765400 0.00000000
  Si  4.61489900 13.32206700 0.00000000
  Si  3.07660000 12.43392900 2.51203300
  Si  4.61489900 15.09834300 2.51203300
  Si  3.07660000 10.65765400 5.02406600
  Si  4.61489900 13.32206700 5.02406600
  Si  3.07660000 14.21020500 7.53609900
  Si  4.61489900 11.54579200 7.53609900
  Si  3.07660000 10.65765400 10.04813200
  Si  4.61489900 13.32206700 10.04813200
  Si  3.07660000 12.43392900 12.56016500
  Si  4.61489900 15.09834300 12.56016500
  Si  3.07660000 10.65765400 15.07219900
  Si  4.61489900 13.32206700 15.07219900
  Si  3.07660000 14.21020500 17.58423200
  Si  4.61489900 11.54579200 17.58423200
  Si  6.15319900 0.00000000 0.00000000
  Si  7.69149900 2.66441300 0.00000000
  Si  6.15319900 1.77627600 2.51203300
  Si  7.69149900 4.44068900 2.51203300
  Si  6.15319900 0.00000000 5.02406600
  Si  7.69149900 2.66441300 5.02406600
  Si  6.15319900 3.55255100 7.53609900
  Si  7.69149900 0.88813800 7.53609900
  Si  6.15319900 0.00000000 10.04813200
  Si  7.69149900 2.66441300 10.04813200
  Si  6.15319900 1.77627600 12.56016500
  Si  7.69149900 4.44068900 12.56016500
  Si  6.15319900 0.00000000 15.07219900
  Si  7.69149900 2.66441300 15.07219900
  Si  6.15319900 3.55255100 17.58423200
  Si  7.69149900 0.88813800 17.58423200
  Si  6.15319900 5.32882700 0.00000000
  Si  7.69149900 7.99324000 0.00000000
  Si  6.15319900 7.10510300 2.51203300
  Si  7.69149900 9.76951600 2.51203300
  Si  6.15319900 5.32882700 5.02406600
  Si  7.69149900 7.99324000 5.02406600
  Si  6.15319900 8.88137800 7.53609900
  Si  7.69149900 6.21696500 7.53609900
  Si  6.15319900 5.32882700 10.04813200
  Si  7.69149900 7.99324000 10.04813200
  Si  6.15319900 7.10510300 12.56016500
  Si  7.69149900 9.76951600 12.56016500
  Si  6.15319900 5.32882700 15.07219900
  Si  6.15319900 8.88137800 17.58423200
  Si  7.69149900 6.21696500 17.58423200
  Si  6.15319900 10.65765400 0.00000000
  Si  7.69149900 13.32206700 0.00000000
  Si  6.15319900 12.43392900 2.51203300
  Si  7.69149900 15.09834300 2.51203300
  Si  6.15319900 10.65765400 5.02406600
  Si  7.69149900 13.32206700 5.02406600
  Si  6.15319900 14.21020500 7.53609900
  Si  7.69149900 11.54579200 7.53609900
  Si  6.15319900 10.65765400 10.04813200
  Si  7.69149900 13.32206700 10.04813200
  Si  6.15319900 12.43392900 12.56016500
  Si  7.69149900 15.09834300 12.56016500
  Si  6.15319900 10.65765400 15.07219900
  Si  7.69149900 13.32206700 15.07219900
  Si  6.15319900 14.21020500 17.58423200
  Si  7.69149900 11.54579200 17.58423200
  Si  9.22979900 0.00000000 0.00000000
  Si  10.76809900 2.66441300 0.00000000
  Si  9.22979900 1.77627600 2.51203300
  Si  10.76809900 4.44068900 2.51203300
  Si  9.22979900 0.00000000 5.02406600
  Si  10.76809900 2.66441300 5.02406600
  Si  9.22979900 3.55255100 7.53609900
  Si  10.76809900 0.88813800 7.53609900
  Si  9.22979900 0.00000000 10.04813200
  Si  10.76809900 2.66441300 10.04813200
  Si  9.22979900 1.77627600 12.56016500
  Si  10.76809900 4.44068900 12.56016500
  Si  9.22979900 0.00000000 15.07219900
  Si  10.76809900 2.66441300 15.07219900
  Si  9.22979900 3.55255100 17.58423200
  Si  10.76809900 0.88813800 17.58423200
  Si  9.22979900 5.32882700 0.00000000
  Si  10.76809900 7.99324000 0.00000000
  Si  9.22979900 7.10510300 2.51203300
  Si  10.76809900 9.76951600 2.51203300
  Si  9.22979900 5.32882700 5.02406600
  Si  10.76809900 7.99324000 5.02406600
  Si  9.22979900 8.88137800 7.53609900
  Si  10.76809900 6.21696500 7.53609900
  Si  9.22979900 5.32882700 10.04813200
  Si  10.76809900 7.99324000 10.04813200
  Si  9.22979900 7.10510300 12.56016500
  Si  10.76809900 9.76951600 12.56016500
  Si  9.22979900 5.32882700 15.07219900
  Si  10.76809900 7.99324000 15.07219900
  Si  9.22979900 8.88137800 17.58423200
  Si  10.76809900 6.21696500 17.58423200
  Si  9.22979900 10.65765400 0.00000000
  Si  10.76809900 13.32206700 0.00000000
  Si  9.22979900 12.43392900 2.51203300
  Si  10.76809900 15.09834300 2.51203300
  Si  9.22979900 10.65765400 5.02406600
  Si  10.76809900 13.32206700 5.02406600
  Si  9.22979900 14.21020500 7.53609900
  Si  10.76809900 11.54579200 7.53609900
  Si  9.22979900 10.65765400 10.04813200
  Si  10.76809900 13.32206700 10.04813200
  Si  9.22979900 12.43392900 12.56016500
  Si  10.76809900 15.09834300 12.56016500
  Si  9.22979900 10.65765400 15.07219900
  Si  10.76809900 13.32206700 15.07219900
  Si  9.22979900 14.21020500 17.58423200
  Si  10.76809900 11.54579200 17.58423200
  C   0.00000000 1.77627600 0.62800800
  C   1.53830000 4.44068900 0.62800800
  C   0.00000000 0.00000000 3.14004100
  C   1.53830000 2.66441300 3.14004100
  C   0.00000000 3.55255100 5.65207400
  C   1.53830000 0.88813800 5.65207400
  C   0.00000000 0.00000000 8.16410800
  C   1.53830000 2.66441300 8.16410800
  C   0.00000000 1.77627600 10.67614100
  C   1.53830000 4.44068900 10.67614100
  C   0.00000000 0.00000000 13.18817400
  C   1.53830000 2.66441300 13.18817400
  C   0.00000000 3.55255100 15.70020700
  C   1.53830000 0.88813800 15.70020700
  C   0.00000000 0.00000000 18.21224000
  C   1.53830000 2.66441300 18.21224000
  C   0.00000000 7.10510300 0.62800800
  C   1.53830000 9.76951600 0.62800800
  C   0.00000000 5.32882700 3.14004100
  C   1.53830000 7.99324000 3.14004100
  C   0.00000000 8.88137800 5.65207400
  C   1.53830000 6.21696500 5.65207400
  C   0.00000000 5.32882700 8.16410800
  C   1.53830000 7.99324000 8.16410800
  C   0.00000000 7.10510300 10.67614100
  C   1.53830000 9.76951600 10.67614100
  C   0.00000000 5.32882700 13.18817400
  C   1.53830000 7.99324000 13.18817400
  C   0.00000000 8.88137800 15.70020700
  C   1.53830000 6.21696500 15.70020700
  C   0.00000000 5.32882700 18.21224000
  C   1.53830000 7.99324000 18.21224000
  C   0.00000000 12.43392900 0.62800800
  C   1.53830000 15.09834300 0.62800800
  C   0.00000000 10.65765400 3.14004100
  C   1.53830000 13.32206700 3.14004100
  C   0.00000000 14.21020500 5.65207400
  C   1.53830000 11.54579200 5.65207400
  C   0.00000000 10.65765400 8.16410800
  C   1.53830000 13.32206700 8.16410800
  C   0.00000000 12.43392900 10.67614100
  C   1.53830000 15.09834300 10.67614100
  C   0.00000000 10.65765400 13.18817400
  C   1.53830000 13.32206700 13.18817400
  C   0.00000000 14.21020500 15.70020700
  C   1.53830000 11.54579200 15.70020700
  C   0.00000000 10.65765400 18.21224000
  C   1.53830000 13.32206700 18.21224000
  C   3.07660000 1.77627600 0.62800800
  C   4.61489900 4.44068900 0.62800800
  C   3.07660000 0.00000000 3.14004100
  C   4.61489900 2.66441300 3.14004100
  C   3.07660000 3.55255100 5.65207400
  C   4.61489900 0.88813800 5.65207400
  C   3.07660000 0.00000000 8.16410800
  C   4.61489900 2.66441300 8.16410800
  C   3.07660000 1.77627600 10.67614100
  C   4.61489900 4.44068900 10.67614100
  C   3.07660000 0.00000000 13.18817400
  C   4.61489900 2.66441300 13.18817400
  C   3.07660000 3.55255100 15.70020700
  C   4.61489900 0.88813800 15.70020700
  C   3.07660000 0.00000000 18.21224000
  C   4.61489900 2.66441300 18.21224000
  C   3.07660000 7.10510300 0.62800800
  C   4.61489900 9.76951600 0.62800800
  C   3.07660000 5.32882700 3.14004100
  C   4.61489900 7.99324000 3.14004100
  C   3.07660000 8.88137800 5.65207400
  C   4.61489900 6.21696500 5.65207400
  C   3.07660000 5.32882700 8.16410800
  C   4.61489900 7.99324000 8.16410800
  C   3.07660000 7.10510300 10.67614100
  C   4.61489900 9.76951600 10.67614100
  C   3.07660000 5.32882700 13.18817400
  C   4.61489900 7.99324000 13.18817400
  C   3.07660000 8.88137800 15.70020700
  C   4.61489900 6.21696500 15.70020700
  C   3.07660000 5.32882700 18.21224000
  C   4.61489900 7.99324000 18.21224000
  C   3.07660000 12.43392900 0.62800800
  C   4.61489900 15.09834300 0.62800800
  C   3.07660000 10.65765400 3.14004100
  C   4.61489900 13.32206700 3.14004100
  C   3.07660000 14.21020500 5.65207400
  C   4.61489900 11.54579200 5.65207400
  C   3.07660000 10.65765400 8.16410800
  C   4.61489900 13.32206700 8.16410800
  C   3.07660000 12.43392900 10.67614100
  C   4.61489900 15.09834300 10.67614100
  C   3.07660000 10.65765400 13.18817400
  C   4.61489900 13.32206700 13.18817400
  C   3.07660000 14.21020500 15.70020700
  C   4.61489900 11.54579200 15.70020700
  C   3.07660000 10.65765400 18.21224000
  C   4.61489900 13.32206700 18.21224000
  C   6.15319900 1.77627600 0.62800800
  C   7.69149900 4.44068900 0.62800800
  C   6.15319900 0.00000000 3.14004100
  C   7.69149900 2.66441300 3.14004100
  C   6.15319900 3.55255100 5.65207400
  C   7.69149900 0.88813800 5.65207400
  C   6.15319900 0.00000000 8.16410800
  C   7.69149900 2.66441300 8.16410800
  C   6.15319900 1.77627600 10.67614100
  C   7.69149900 4.44068900 10.67614100
  C   6.15319900 0.00000000 13.18817400
  C   7.69149900 2.66441300 13.18817400
  C   6.15319900 3.55255100 15.70020700
  C   7.69149900 0.88813800 15.70020700
  C   6.15319900 0.00000000 18.21224000
  C   7.69149900 2.66441300 18.21224000
  C   6.15319900 7.10510300 0.62800800
  C   7.69149900 9.76951600 0.62800800
  C   6.15319900 5.32882700 3.14004100
  C   7.69149900 7.99324000 3.14004100
  C   6.15319900 8.88137800 5.65207400
  C   7.69149900 6.21696500 5.65207400
  C   6.15319900 5.32882700 8.16410800
  C   7.69149900 7.99324000 8.16410800
  C   6.15319900 7.10510300 10.67614100
  C   7.69149900 9.76951600 10.67614100
  C   6.15319900 5.32882700 13.18817400
  C   7.69149900 7.99324000 13.18817400
  H   7.69149900 7.99324000 14.27817400
  C   6.15319900 8.88137800 15.70020700
  H   7.04318031 8.36754700 15.33687385
  C   7.69149900 6.21696500 15.70020700
  H   7.69149900 7.24462686 15.33687369
  C   6.15319900 5.32882700 18.21224000
  C   7.69149900 7.99324000 18.21224000
  C   6.15319900 12.43392900 0.62800800
  C   7.69149900 15.09834300 0.62800800
  C   6.15319900 10.65765400 3.14004100
  C   7.69149900 13.32206700 3.14004100
  C   6.15319900 14.21020500 5.65207400
  C   7.69149900 11.54579200 5.65207400
  C   6.15319900 10.65765400 8.16410800
  C   7.69149900 13.32206700 8.16410800
  C   6.15319900 12.43392900 10.67614100
  C   7.69149900 15.09834300 10.67614100
  C   6.15319900 10.65765400 13.18817400
  C   7.69149900 13.32206700 13.18817400
  C   6.15319900 14.21020500 15.70020700
  C   7.69149900 11.54579200 15.70020700
  C   6.15319900 10.65765400 18.21224000
  C   7.69149900 13.32206700 18.21224000
  C   9.22979900 1.77627600 0.62800800
  C   10.76809900 4.44068900 0.62800800
  C   9.22979900 0.00000000 3.14004100
  C   10.76809900 2.66441300 3.14004100
  C   9.22979900 3.55255100 5.65207400
  C   10.76809900 0.88813800 5.65207400
  C   9.22979900 0.00000000 8.16410800
  C   10.76809900 2.66441300 8.16410800
  C   9.22979900 1.77627600 10.67614100
  C   10.76809900 4.44068900 10.67614100
  C   9.22979900 0.00000000 13.18817400
  C   10.76809900 2.66441300 13.18817400
  C   9.22979900 3.55255100 15.70020700
  C   10.76809900 0.88813800 15.70020700
  C   9.22979900 0.00000000 18.21224000
  C   10.76809900 2.66441300 18.21224000
  C   9.22979900 7.10510300 0.62800800
  C   10.76809900 9.76951600 0.62800800
  C   9.22979900 5.32882700 3.14004100
  C   10.76809900 7.99324000 3.14004100
  C   9.22979900 8.88137800 5.65207400
  C   10.76809900 6.21696500 5.65207400
  C   9.22979900 5.32882700 8.16410800
  C   10.76809900 7.99324000 8.16410800
  C   9.22979900 7.10510300 10.67614100
  C   10.76809900 9.76951600 10.67614100
  C   9.22979900 5.32882700 13.18817400
  C   10.76809900 7.99324000 13.18817400
  C   9.22979900 8.88137800 15.70020700
  H   8.33981769 8.36754700 15.33687385
  C   10.76809900 6.21696500 15.70020700
  C   9.22979900 5.32882700 18.21224000
  C   10.76809900 7.99324000 18.21224000
  C   9.22979900 12.43392900 0.62800800
  C   10.76809900 15.09834300 0.62800800
  C   9.22979900 10.65765400 3.14004100
  C   10.76809900 13.32206700 3.14004100
  C   9.22979900 14.21020500 5.65207400
  C   10.76809900 11.54579200 5.65207400
  C   9.22979900 10.65765400 8.16410800
  C   10.76809900 13.32206700 8.16410800
  C   9.22979900 12.43392900 10.67614100
  C   10.76809900 15.09834300 10.67614100
  C   9.22979900 10.65765400 13.18817400
  C   10.76809900 13.32206700 13.18817400
  C   9.22979900 14.21020500 15.70020700
  C   10.76809900 11.54579200 15.70020700
  C   9.22979900 10.65765400 18.21224000
  C   10.76809900 13.32206700 18.21224000
K_POINTS automatic
  1 1 1 0 0 0
