&CONTROL
  calculation = 'relax',
  prefix = 'sic_vsi4h_4',
  outdir = './out/',
  pseudo_dir = '/home/kyou/q-e/pseudo/',
  tstress = .true.,
  tprnfor = .true.,
/
&SYSTEM
  ibrav = 0,
  nat = 963, ntyp = 3,
  ecutwfc = 40.0, ecutrho = 320.0,
  occupations = 'smearing', smearing = 'gaussian', degauss = 0.01,
  nosym = .true.,
  noinv = .true.,
/
&ELECTRONS
  conv_thr = 1.0d-6,
  mixing_beta = 0.3,
/
&IONS
  ion_dynamics = 'bfgs',
/
ATOMIC_SPECIES
  Si  28.0855  Si.pbe-n-kjpaw_psl.1.0.0.UPF
  C   12.0107  C.pbe-n-kjpaw_psl.1.0.0.UPF
  H   1.00784  H.pbe-kjpaw_psl.1.0.0.UPF
CELL_PARAMETERS (angstrom)
  15.38299800 0.00000000 0.00000000
  0.00000000 21.31530800 0.00000000
  0.00000000 0.00000000 30.14439700
ATOMIC_POSITIONS (angstrom)
  Si  0.00000000 0.00000000 0.00000000
  Si  1.53830000 2.66441300 0.00000000
  Si  0.00000000 1.77627600 2.51203300
  Si  1.53830000 4.44068900 2.51203300
  Si  0.00000000 0.00000000 5.02406600
  Si  1.53830000 2.66441300 5.02406600
  Si  0.00000000 3.55255100 7.53609900
  Si  1.53830000 0.88813800 7.53609900
  Si  0.00000000 0.00000000 10.04813200
  Si  1.53830000 2.66441300 10.04813200
  Si  0.00000000 1.77627600 12.56016500
  Si  1.53830000 4.44068900 12.56016500
  Si  0.00000000 0.00000000 15.07219900
  Si  1.53830000 2.66441300 15.07219900
  Si  0.00000000 3.55255100 17.58423200
  Si  1.53830000 0.88813800 17.58423200
  Si  0.00000000 0.00000000 20.09626500
  Si  1.53830000 2.66441300 20.09626500
  Si  0.00000000 1.77627600 22.60829800
  Si  1.53830000 4.44068900 22.60829800
  Si  0.00000000 0.00000000 25.12033100
  Si  1.53830000 2.66441300 25.12033100
  Si  0.00000000 3.55255100 27.63236400
  Si  1.53830000 0.88813800 27.63236400
  Si  0.00000000 5.32882700 0.00000000
  Si  1.53830000 7.99324000 0.00000000
  Si  0.00000000 7.10510300 2.51203300
  Si  1.53830000 9.76951600 2.51203300
  Si  0.00000000 5.32882700 5.02406600
  Si  1.53830000 7.99324000 5.02406600
  Si  0.00000000 8.88137800 7.53609900
  Si  1.53830000 6.21696500 7.53609900
  Si  0.00000000 5.32882700 10.04813200
  Si  1.53830000 7.99324000 10.04813200
  Si  0.00000000 7.10510300 12.56016500
  Si  1.53830000 9.76951600 12.56016500
  Si  0.00000000 5.32882700 15.07219900
  Si  1.53830000 7.99324000 15.07219900
  Si  0.00000000 8.88137800 17.58423200
  Si  1.53830000 6.21696500 17.58423200
  Si  0.00000000 5.32882700 20.09626500
  Si  1.53830000 7.99324000 20.09626500
  Si  0.00000000 7.10510300 22.60829800
  Si  1.53830000 9.76951600 22.60829800
  Si  0.00000000 5.32882700 25.12033100
  Si  1.53830000 7.99324000 25.12033100
  Si  0.00000000 8.88137800 27.63236400
  Si  1.53830000 6.21696500 27.63236400
  Si  0.00000000 10.65765400 0.00000000
  Si  1.53830000 13.32206700 0.00000000
  Si  0.00000000 12.43392900 2.51203300
  Si  1.53830000 15.09834300 2.51203300
  Si  0.00000000 10.65765400 5.02406600
  Si  1.53830000 13.32206700 5.02406600
  Si  0.00000000 14.21020500 7.53609900
  Si  1.53830000 11.54579200 7.53609900
  Si  0.00000000 10.65765400 10.04813200
  Si  1.53830000 13.32206700 10.04813200
  Si  0.00000000 12.43392900 12.56016500
  Si  1.53830000 15.09834300 12.56016500
  Si  0.00000000 10.65765400 15.07219900
  Si  1.53830000 13.32206700 15.07219900
  Si  0.00000000 14.21020500 17.58423200
  Si  1.53830000 11.54579200 17.58423200
  Si  0.00000000 10.65765400 20.09626500
  Si  1.53830000 13.32206700 20.09626500
  Si  0.00000000 12.43392900 22.60829800
  Si  1.53830000 15.09834300 22.60829800
  Si  0.00000000 10.65765400 25.12033100
  Si  1.53830000 13.32206700 25.12033100
  Si  0.00000000 14.21020500 27.63236400
  Si  1.53830000 11.54579200 27.63236400
  Si  0.00000000 15.98648100 0.00000000
  Si  1.53830000 18.65089400 0.00000000
  Si  0.00000000 17.76275600 2.51203300
  Si  1.53830000 20.42717000 2.51203300
  Si  0.00000000 15.98648100 5.02406600
  Si  1.53830000 18.65089400 5.02406600
  Si  0.00000000 19.53903200 7.53609900
  Si  1.53830000 16.87461800 7.53609900
  Si  0.00000000 15.98648100 10.04813200
  Si  1.53830000 18.65089400 10.04813200
  Si  0.00000000 17.76275600 12.56016500
  Si  1.53830000 20.42717000 12.56016500
  Si  0.00000000 15.98648100 15.07219900
  Si  1.53830000 18.65089400 15.07219900
  Si  0.00000000 19.53903200 17.58423200
  Si  1.53830000 16.87461800 17.58423200
  Si  0.00000000 15.98648100 20.09626500
  Si  1.53830000 18.65089400 20.09626500
  Si  0.00000000 17.76275600 22.60829800
  Si  1.53830000 20.42717000 22.60829800
  Si  0.00000000 15.98648100 25.12033100
  Si  1.53830000 18.65089400 25.12033100
  Si  0.00000000 19.53903200 27.63236400
  Si  1.53830000 16.87461800 27.63236400
  Si  3.07660000 0.00000000 0.00000000
  Si  4.61489900 2.66441300 0.00000000
  Si  3.07660000 1.77627600 2.51203300
  Si  4.61489900 4.44068900 2.51203300
  Si  3.07660000 0.00000000 5.02406600
  Si  4.61489900 2.66441300 5.02406600
  Si  3.07660000 3.55255100 7.53609900
  Si  4.61489900 0.88813800 7.53609900
  Si  3.07660000 0.00000000 10.04813200
  Si  4.61489900 2.66441300 10.04813200
  Si  3.07660000 1.77627600 12.56016500
  Si  4.61489900 4.44068900 12.56016500
  Si  3.07660000 0.00000000 15.07219900
  Si  4.61489900 2.66441300 15.07219900
  Si  3.07660000 3.55255100 17.58423200
  Si  4.61489900 0.88813800 17.58423200
  Si  3.07660000 0.00000000 20.09626500
  Si  4.61489900 2.66441300 20.09626500
  Si  3.07660000 1.77627600 22.60829800
  Si  4.61489900 4.44068900 22.60829800
  Si  3.07660000 0.00000000 25.12033100
  Si  4.61489900 2.66441300 25.12033100
  Si  3.07660000 3.55255100 27.63236400
  Si  4.61489900 0.88813800 27.63236400
  Si  3.07660000 5.32882700 0.00000000
  Si  4.61489900 7.99324000 0.00000000
  Si  3.07660000 7.10510300 2.51203300
  Si  4.61489900 9.76951600 2.51203300
  Si  3.07660000 5.32882700 5.02406600
  Si  4.61489900 7.99324000 5.02406600
  Si  3.07660000 8.88137800 7.53609900
  Si  4.61489900 6.21696500 7.53609900
  Si  3.07660000 5.32882700 10.04813200
  Si  4.61489900 7.99324000 10.04813200
  Si  3.07660000 7.10510300 12.56016500
  Si  4.61489900 9.76951600 12.56016500
  Si  3.07660000 5.32882700 15.07219900
  Si  4.61489900 7.99324000 15.07219900
  Si  3.07660000 8.88137800 17.58423200
  Si  4.61489900 6.21696500 17.58423200
  Si  3.07660000 5.32882700 20.09626500
  Si  4.61489900 7.99324000 20.09626500
  Si  3.07660000 7.10510300 22.60829800
  Si  4.61489900 9.76951600 22.60829800
  Si  3.07660000 5.32882700 25.12033100
  Si  4.61489900 7.99324000 25.12033100
  Si  3.07660000 8.88137800 27.63236400
  Si  4.61489900 6.21696500 27.63236400
  Si  3.07660000 10.65765400 0.00000000
  Si  4.61489900 13.32206700 0.00000000
  Si  3.07660000 12.43392900 2.51203300
  Si  4.61489900 15.09834300 2.51203300
  Si  3.07660000 10.65765400 5.02406600
  Si  4.61489900 13.32206700 5.02406600
  Si  3.07660000 14.21020500 7.53609900
  Si  4.61489900 11.54579200 7.53609900
  Si  3.07660000 10.65765400 10.04813200
  Si  4.61489900 13.32206700 10.04813200
  Si  3.07660000 12.43392900 12.56016500
  Si  4.61489900 15.09834300 12.56016500
  Si  3.07660000 10.65765400 15.07219900
  Si  4.61489900 13.32206700 15.07219900
  Si  3.07660000 14.21020500 17.58423200
  Si  4.61489900 11.54579200 17.58423200
  Si  3.07660000 10.65765400 20.09626500
  Si  4.61489900 13.32206700 20.09626500
  Si  3.07660000 12.43392900 22.60829800
  Si  4.61489900 15.09834300 22.60829800
  Si  3.07660000 10.65765400 25.12033100
  Si  4.61489900 13.32206700 25.12033100
  Si  3.07660000 14.21020500 27.63236400
  Si  4.61489900 11.54579200 27.63236400
  Si  3.07660000 15.98648100 0.00000000
  Si  4.61489900 18.65089400 0.00000000
  Si  3.07660000 17.76275600 2.51203300
  Si  4.61489900 20.42717000 2.51203300
  Si  3.07660000 15.98648100 5.02406600
  Si  4.61489900 18.65089400 5.02406600
  Si  3.07660000 19.53903200 7.53609900
  Si  4.61489900 16.87461800 7.53609900
  Si  3.07660000 15.98648100 10.04813200
  Si  4.61489900 18.65089400 10.04813200
  Si  3.07660000 17.76275600 12.56016500
  Si  4.61489900 20.42717000 12.56016500
  Si  3.07660000 15.98648100 15.07219900
  Si  4.61489900 18.65089400 15.07219900
  Si  3.07660000 19.53903200 17.58423200
  Si  4.61489900 16.87461800 17.58423200
  Si  3.07660000 15.98648100 20.09626500
  Si  4.61489900 18.65089400 20.09626500
  Si  3.07660000 17.76275600 22.60829800
  Si  4.61489900 20.42717000 22.60829800
  Si  3.07660000 15.98648100 25.12033100
  Si  4.61489900 18.65089400 25.12033100
  Si  3.07660000 19.53903200 27.63236400
  Si  4.61489900 16.87461800 27.63236400
  Si  6.15319900 0.00000000 0.00000000
  Si  7.69149900 2.66441300 0.00000000
  Si  6.15319900 1.77627600 2.51203300
  Si  7.69149900 4.44068900 2.51203300
  Si  6.15319900 0.00000000 5.02406600
  Si  7.69149900 2.66441300 5.02406600
  Si  6.15319900 3.55255100 7.53609900
  Si  7.69149900 0.88813800 7.53609900
  Si  6.15319900 0.00000000 10.04813200
  Si  7.69149900 2.66441300 10.04813200
  Si  6.15319900 1.77627600 12.56016500
  Si  7.69149900 4.44068900 12.56016500
  Si  6.15319900 0.00000000 15.07219900
  Si  7.69149900 2.66441300 15.07219900
  Si  6.15319900 3.55255100 17.58423200
  Si  7.69149900 0.88813800 17.58423200
  Si  6.15319900 0.00000000 20.09626500
  Si  7.69149900 2.66441300 20.09626500
  Si  6.15319900 1.77627600 22.60829800
  Si  7.69149900 4.44068900 22.60829800
  Si  6.15319900 0.00000000 25.12033100
  Si  7.69149900 2.66441300 25.12033100
  Si  6.15319900 3.55255100 27.63236400
  Si  7.69149900 0.88813800 27.63236400
  Si  6.15319900 5.32882700 0.00000000
  Si  7.69149900 7.99324000 0.00000000
  Si  6.15319900 7.10510300 2.51203300
  Si  7.69149900 9.76951600 2.51203300
  Si  6.15319900 5.32882700 5.02406600
  Si  7.69149900 7.99324000 5.02406600
  Si  6.15319900 8.88137800 7.53609900
  Si  7.69149900 6.21696500 7.53609900
  Si  6.15319900 5.32882700 10.04813200
  Si  7.69149900 7.99324000 10.04813200
  Si  6.15319900 7.10510300 12.56016500
  Si  7.69149900 9.76951600 12.56016500
  Si  6.15319900 5.32882700 15.07219900
  Si  7.69149900 7.99324000 15.07219900
  Si  6.15319900 8.88137800 17.58423200
  Si  7.69149900 6.21696500 17.58423200
  Si  6.15319900 5.32882700 20.09626500
  Si  7.69149900 7.99324000 20.09626500
  Si  6.15319900 7.10510300 22.60829800
  Si  7.69149900 9.76951600 22.60829800
  Si  6.15319900 5.32882700 25.12033100
  Si  7.69149900 7.99324000 25.12033100
  Si  6.15319900 8.88137800 27.63236400
  Si  7.69149900 6.21696500 27.63236400
  Si  6.15319900 10.65765400 0.00000000
  Si  7.69149900 13.32206700 0.00000000
  Si  6.15319900 12.43392900 2.51203300
  Si  7.69149900 15.09834300 2.51203300
  Si  6.15319900 10.65765400 5.02406600
  Si  7.69149900 13.32206700 5.02406600
  Si  6.15319900 14.21020500 7.53609900
  Si  7.69149900 11.54579200 7.53609900
  Si  6.15319900 10.65765400 10.04813200
  Si  7.69149900 13.32206700 10.04813200
  Si  6.15319900 12.43392900 12.56016500
  Si  7.69149900 15.09834300 12.56016500
  Si  6.15319900 10.65765400 15.07219900
  Si  6.15319900 14.21020500 17.58423200
  Si  7.69149900 11.54579200 17.58423200
  Si  6.15319900 10.65765400 20.09626500
  Si  7.69149900 13.32206700 20.09626500
  Si  6.15319900 12.43392900 22.60829800
  Si  7.69149900 15.09834300 22.60829800
  Si  6.15319900 10.65765400 25.12033100
  Si  7.69149900 13.32206700 25.12033100
  Si  6.15319900 14.21020500 27.63236400
  Si  7.69149900 11.54579200 27.63236400
  Si  6.15319900 15.98648100 0.00000000
  Si  7.69149900 18.65089400 0.00000000
  Si  6.15319900 17.76275600 2.51203300
  Si  7.69149900 20.42717000 2.51203300
  Si  6.15319900 15.98648100 5.02406600
  Si  7.69149900 18.65089400 5.02406600
  Si  6.15319900 19.53903200 7.53609900
  Si  7.69149900 16.87461800 7.53609900
  Si  6.15319900 15.98648100 10.04813200
  Si  7.69149900 18.65089400 10.04813200
  Si  6.15319900 17.76275600 12.56016500
  Si  7.69149900 20.42717000 12.56016500
  Si  6.15319900 15.98648100 15.07219900
  Si  7.69149900 18.65089400 15.07219900
  Si  6.15319900 19.53903200 17.58423200
  Si  7.69149900 16.87461800 17.58423200
  Si  6.15319900 15.98648100 20.09626500
  Si  7.69149900 18.65089400 20.09626500
  Si  6.15319900 17.76275600 22.60829800
  Si  7.69149900 20.42717000 22.60829800
  Si  6.15319900 15.98648100 25.12033100
  Si  7.69149900 18.65089400 25.12033100
  Si  6.15319900 19.53903200 27.63236400
  Si  7.69149900 16.87461800 27.63236400
  Si  9.22979900 0.00000000 0.00000000
  Si  10.76809900 2.66441300 0.00000000
  Si  9.22979900 1.77627600 2.51203300
  Si  10.76809900 4.44068900 2.51203300
  Si  9.22979900 0.00000000 5.02406600
  Si  10.76809900 2.66441300 5.02406600
  Si  9.22979900 3.55255100 7.53609900
  Si  10.76809900 0.88813800 7.53609900
  Si  9.22979900 0.00000000 10.04813200
  Si  10.76809900 2.66441300 10.04813200
  Si  9.22979900 1.77627600 12.56016500
  Si  10.76809900 4.44068900 12.56016500
  Si  9.22979900 0.00000000 15.07219900
  Si  10.76809900 2.66441300 15.07219900
  Si  9.22979900 3.55255100 17.58423200
  Si  10.76809900 0.88813800 17.58423200
  Si  9.22979900 0.00000000 20.09626500
  Si  10.76809900 2.66441300 20.09626500
  Si  9.22979900 1.77627600 22.60829800
  Si  10.76809900 4.44068900 22.60829800
  Si  9.22979900 0.00000000 25.12033100
  Si  10.76809900 2.66441300 25.12033100
  Si  9.22979900 3.55255100 27.63236400
  Si  10.76809900 0.88813800 27.63236400
  Si  9.22979900 5.32882700 0.00000000
  Si  10.76809900 7.99324000 0.00000000
  Si  9.22979900 7.10510300 2.51203300
  Si  10.76809900 9.76951600 2.51203300
  Si  9.22979900 5.32882700 5.02406600
  Si  10.76809900 7.99324000 5.02406600
  Si  9.22979900 8.88137800 7.53609900
  Si  10.76809900 6.21696500 7.53609900
  Si  9.22979900 5.32882700 10.04813200
  Si  10.76809900 7.99324000 10.04813200
  Si  9.22979900 7.10510300 12.56016500
  Si  10.76809900 9.76951600 12.56016500
  Si  9.22979900 5.32882700 15.07219900
  Si  10.76809900 7.99324000 15.07219900
  Si  9.22979900 8.88137800 17.58423200
  Si  10.76809900 6.21696500 17.58423200
  Si  9.22979900 5.32882700 20.09626500
  Si  10.76809900 7.99324000 20.09626500
  Si  9.22979900 7.10510300 22.60829800
  Si  10.76809900 9.76951600 22.60829800
  Si  9.22979900 5.32882700 25.12033100
  Si  10.76809900 7.99324000 25.12033100
  Si  9.22979900 8.88137800 27.63236400
  Si  10.76809900 6.21696500 27.63236400
  Si  9.22979900 10.65765400 0.00000000
  Si  10.76809900 13.32206700 0.00000000
  Si  9.22979900 12.43392900 2.51203300
  Si  10.76809900 15.09834300 2.51203300
  Si  9.22979900 10.65765400 5.02406600
  Si  10.76809900 13.32206700 5.02406600
  Si  9.22979900 14.21020500 7.53609900
  Si  10.76809900 11.54579200 7.53609900
  Si  9.22979900 10.65765400 10.04813200
  Si  10.76809900 13.32206700 10.04813200
  Si  9.22979900 12.43392900 12.56016500
  Si  10.76809900 15.09834300 12.56016500
  Si  9.22979900 10.65765400 15.07219900
  Si  10.76809900 13.32206700 15.07219900
  Si  9.22979900 14.21020500 17.58423200
  Si  10.76809900 11.54579200 17.58423200
  Si  9.22979900 10.65765400 20.09626500
  Si  10.76809900 13.32206700 20.09626500
  Si  9.22979900 12.43392900 22.60829800
  Si  10.76809900 15.09834300 22.60829800
  Si  9.22979900 10.65765400 25.12033100
  Si  10.76809900 13.32206700 25.12033100
  Si  9.22979900 14.21020500 27.63236400
  Si  10.76809900 11.54579200 27.63236400
  Si  9.22979900 15.98648100 0.00000000
  Si  10.76809900 18.65089400 0.00000000
  Si  9.22979900 17.76275600 2.51203300
  Si  10.76809900 20.42717000 2.51203300
  Si  9.22979900 15.98648100 5.02406600
  Si  10.76809900 18.65089400 5.02406600
  Si  9.22979900 19.53903200 7.53609900
  Si  10.76809900 16.87461800 7.53609900
  Si  9.22979900 15.98648100 10.04813200
  Si  10.76809900 18.65089400 10.04813200
  Si  9.22979900 17.76275600 12.56016500
  Si  10.76809900 20.42717000 12.56016500
  Si  9.22979900 15.98648100 15.07219900
  Si  10.76809900 18.65089400 15.07219900
  Si  9.22979900 19.53903200 17.58423200
  Si  10.76809900 16.87461800 17.58423200
  Si  9.22979900 15.98648100 20.09626500
  Si  10.76809900 18.65089400 20.09626500
  Si  9.22979900 17.76275600 22.60829800
  Si  10.76809900 20.42717000 22.60829800
  Si  9.22979900 15.98648100 25.12033100
  Si  10.76809900 18.65089400 25.12033100
  Si  9.22979900 19.53903200 27.63236400
  Si  10.76809900 16.87461800 27.63236400
  Si  12.30639900 0.00000000 0.00000000
  Si  13.84469800 2.66441300 0.00000000
  Si  12.30639900 1.77627600 2.51203300
  Si  13.84469800 4.44068900 2.51203300
  Si  12.30639900 0.00000000 5.02406600
  Si  13.84469800 2.66441300 5.02406600
  Si  12.30639900 3.55255100 7.53609900
  Si  13.84469800 0.88813800 7.53609900
  Si  12.30639900 0.00000000 10.04813200
  Si  13.84469800 2.66441300 10.04813200
  Si  12.30639900 1.77627600 12.56016500
  Si  13.84469800 4.44068900 12.56016500
  Si  12.30639900 0.00000000 15.07219900
  Si  13.84469800 2.66441300 15.07219900
  Si  12.30639900 3.55255100 17.58423200
  Si  13.84469800 0.88813800 17.58423200
  Si  12.30639900 0.00000000 20.09626500
  Si  13.84469800 2.66441300 20.09626500
  Si  12.30639900 1.77627600 22.60829800
  Si  13.84469800 4.44068900 22.60829800
  Si  12.30639900 0.00000000 25.12033100
  Si  13.84469800 2.66441300 25.12033100
  Si  12.30639900 3.55255100 27.63236400
  Si  13.84469800 0.88813800 27.63236400
  Si  12.30639900 5.32882700 0.00000000
  Si  13.84469800 7.99324000 0.00000000
  Si  12.30639900 7.10510300 2.51203300
  Si  13.84469800 9.76951600 2.51203300
  Si  12.30639900 5.32882700 5.02406600
  Si  13.84469800 7.99324000 5.02406600
  Si  12.30639900 8.88137800 7.53609900
  Si  13.84469800 6.21696500 7.53609900
  Si  12.30639900 5.32882700 10.04813200
  Si  13.84469800 7.99324000 10.04813200
  Si  12.30639900 7.10510300 12.56016500
  Si  13.84469800 9.76951600 12.56016500
  Si  12.30639900 5.32882700 15.07219900
  Si  13.84469800 7.99324000 15.07219900
  Si  12.30639900 8.88137800 17.58423200
  Si  13.84469800 6.21696500 17.58423200
  Si  12.30639900 5.32882700 20.09626500
  Si  13.84469800 7.99324000 20.09626500
  Si  12.30639900 7.10510300 22.60829800
  Si  13.84469800 9.76951600 22.60829800
  Si  12.30639900 5.32882700 25.12033100
  Si  13.84469800 7.99324000 25.12033100
  Si  12.30639900 8.88137800 27.63236400
  Si  13.84469800 6.21696500 27.63236400
  Si  12.30639900 10.65765400 0.00000000
  Si  13.84469800 13.32206700 0.00000000
  Si  12.30639900 12.43392900 2.51203300
  Si  13.84469800 15.09834300 2.51203300
  Si  12.30639900 10.65765400 5.02406600
  Si  13.84469800 13.32206700 5.02406600
  Si  12.30639900 14.21020500 7.53609900
  Si  13.84469800 11.54579200 7.53609900
  Si  12.30639900 10.65765400 10.04813200
  Si  13.84469800 13.32206700 10.04813200
  Si  12.30639900 12.43392900 12.56016500
  Si  13.84469800 15.09834300 12.56016500
  Si  12.30639900 10.65765400 15.07219900
  Si  13.84469800 13.32206700 15.07219900
  Si  12.30639900 14.21020500 17.58423200
  Si  13.84469800 11.54579200 17.58423200
  Si  12.30639900 10.65765400 20.09626500
  Si  13.84469800 13.32206700 20.09626500
  Si  12.30639900 12.43392900 22.60829800
  Si  13.84469800 15.09834300 22.60829800
  Si  12.30639900 10.65765400 25.12033100
  Si  13.84469800 13.32206700 25.12033100
  Si  12.30639900 14.21020500 27.63236400
  Si  13.84469800 11.54579200 27.63236400
  Si  12.30639900 15.98648100 0.00000000
  Si  13.84469800 18.65089400 0.00000000
  Si  12.30639900 17.76275600 2.51203300
  Si  13.84469800 20.42717000 2.51203300
  Si  12.30639900 15.98648100 5.02406600
  Si  13.84469800 18.65089400 5.02406600
  Si  12.30639900 19.53903200 7.53609900
  Si  13.84469800 16.87461800 7.53609900
  Si  12.30639900 15.98648100 10.04813200
  Si  13.84469800 18.65089400 10.04813200
  Si  12.30639900 17.76275600 12.56016500
  Si  13.84469800 20.42717000 12.56016500
  Si  12.30639900 15.98648100 15.07219900
  Si  13.84469800 18.65089400 15.07219900
  Si  12.30639900 19.53903200 17.58423200
  Si  13.84469800 16.87461800 17.58423200
  Si  12.30639900 15.98648100 20.09626500
  Si  13.84469800 18.65089400 20.09626500
  Si  12.30639900 17.76275600 22.60829800
  Si  13.84469800 20.42717000 22.60829800
  Si  12.30639900 15.98648100 25.12033100
  Si  13.84469800 18.65089400 25.12033100
  Si  12.30639900 19.53903200 27.63236400
  Si  13.84469800 16.87461800 27.63236400
  C   0.00000000 1.77627600 0.62800800
  C   1.53830000 4.44068900 0.62800800
  C   0.00000000 0.00000000 3.14004100
  C   1.53830000 2.66441300 3.14004100
  C   0.00000000 3.55255100 5.65207400
  C   1.53830000 0.88813800 5.65207400
  C   0.00000000 0.00000000 8.16410800
  C   1.53830000 2.66441300 8.16410800
  C   0.00000000 1.77627600 10.67614100
  C   1.53830000 4.44068900 10.67614100
  C   0.00000000 0.00000000 13.18817400
  C   1.53830000 2.66441300 13.18817400
  C   0.00000000 3.55255100 15.70020700
  C   1.53830000 0.88813800 15.70020700
  C   0.00000000 0.00000000 18.21224000
  C   1.53830000 2.66441300 18.21224000
  C   0.00000000 1.77627600 20.72427300
  C   1.53830000 4.44068900 20.72427300
  C   0.00000000 0.00000000 23.23630600
  C   1.53830000 2.66441300 23.23630600
  C   0.00000000 3.55255100 25.74833900
  C   1.53830000 0.88813800 25.74833900
  C   0.00000000 0.00000000 28.26037200
  C   1.53830000 2.66441300 28.26037200
  C   0.00000000 7.10510300 0.62800800
  C   1.53830000 9.76951600 0.62800800
  C   0.00000000 5.32882700 3.14004100
  C   1.53830000 7.99324000 3.14004100
  C   0.00000000 8.88137800 5.65207400
  C   1.53830000 6.21696500 5.65207400
  C   0.00000000 5.32882700 8.16410800
  C   1.53830000 7.99324000 8.16410800
  C   0.00000000 7.10510300 10.67614100
  C   1.53830000 9.76951600 10.67614100
  C   0.00000000 5.32882700 13.18817400
  C   1.53830000 7.99324000 13.18817400
  C   0.00000000 8.88137800 15.70020700
  C   1.53830000 6.21696500 15.70020700
  C   0.00000000 5.32882700 18.21224000
  C   1.53830000 7.99324000 18.21224000
  C   0.00000000 7.10510300 20.72427300
  C   1.53830000 9.76951600 20.72427300
  C   0.00000000 5.32882700 23.23630600
  C   1.53830000 7.99324000 23.23630600
  C   0.00000000 8.88137800 25.74833900
  C   1.53830000 6.21696500 25.74833900
  C   0.00000000 5.32882700 28.26037200
  C   1.53830000 7.99324000 28.26037200
  C   0.00000000 12.43392900 0.62800800
  C   1.53830000 15.09834300 0.62800800
  C   0.00000000 10.65765400 3.14004100
  C   1.53830000 13.32206700 3.14004100
  C   0.00000000 14.21020500 5.65207400
  C   1.53830000 11.54579200 5.65207400
  C   0.00000000 10.65765400 8.16410800
  C   1.53830000 13.32206700 8.16410800
  C   0.00000000 12.43392900 10.67614100
  C   1.53830000 15.09834300 10.67614100
  C   0.00000000 10.65765400 13.18817400
  C   1.53830000 13.32206700 13.18817400
  C   0.00000000 14.21020500 15.70020700
  C   1.53830000 11.54579200 15.70020700
  C   0.00000000 10.65765400 18.21224000
  C   1.53830000 13.32206700 18.21224000
  C   0.00000000 12.43392900 20.72427300
  C   1.53830000 15.09834300 20.72427300
  C   0.00000000 10.65765400 23.23630600
  C   1.53830000 13.32206700 23.23630600
  C   0.00000000 14.21020500 25.74833900
  C   1.53830000 11.54579200 25.74833900
  C   0.00000000 10.65765400 28.26037200
  C   1.53830000 13.32206700 28.26037200
  C   0.00000000 17.76275600 0.62800800
  C   1.53830000 20.42717000 0.62800800
  C   0.00000000 15.98648100 3.14004100
  C   1.53830000 18.65089400 3.14004100
  C   0.00000000 19.53903200 5.65207400
  C   1.53830000 16.87461800 5.65207400
  C   0.00000000 15.98648100 8.16410800
  C   1.53830000 18.65089400 8.16410800
  C   0.00000000 17.76275600 10.67614100
  C   1.53830000 20.42717000 10.67614100
  C   0.00000000 15.98648100 13.18817400
  C   1.53830000 18.65089400 13.18817400
  C   0.00000000 19.53903200 15.70020700
  C   1.53830000 16.87461800 15.70020700
  C   0.00000000 15.98648100 18.21224000
  C   1.53830000 18.65089400 18.21224000
  C   0.00000000 17.76275600 20.72427300
  C   1.53830000 20.42717000 20.72427300
  C   0.00000000 15.98648100 23.23630600
  C   1.53830000 18.65089400 23.23630600
  C   0.00000000 19.53903200 25.74833900
  C   1.53830000 16.87461800 25.74833900
  C   0.00000000 15.98648100 28.26037200
  C   1.53830000 18.65089400 28.26037200
  C   3.07660000 1.77627600 0.62800800
  C   4.61489900 4.44068900 0.62800800
  C   3.07660000 0.00000000 3.14004100
  C   4.61489900 2.66441300 3.14004100
  C   3.07660000 3.55255100 5.65207400
  C   4.61489900 0.88813800 5.65207400
  C   3.07660000 0.00000000 8.16410800
  C   4.61489900 2.66441300 8.16410800
  C   3.07660000 1.77627600 10.67614100
  C   4.61489900 4.44068900 10.67614100
  C   3.07660000 0.00000000 13.18817400
  C   4.61489900 2.66441300 13.18817400
  C   3.07660000 3.55255100 15.70020700
  C   4.61489900 0.88813800 15.70020700
  C   3.07660000 0.00000000 18.21224000
  C   4.61489900 2.66441300 18.21224000
  C   3.07660000 1.77627600 20.72427300
  C   4.61489900 4.44068900 20.72427300
  C   3.07660000 0.00000000 23.23630600
  C   4.61489900 2.66441300 23.23630600
  C   3.07660000 3.55255100 25.74833900
  C   4.61489900 0.88813800 25.74833900
  C   3.07660000 0.00000000 28.26037200
  C   4.61489900 2.66441300 28.26037200
  C   3.07660000 7.10510300 0.62800800
  C   4.61489900 9.76951600 0.62800800
  C   3.07660000 5.32882700 3.14004100
  C   4.61489900 7.99324000 3.14004100
  C   3.07660000 8.88137800 5.65207400
  C   4.61489900 6.21696500 5.65207400
  C   3.07660000 5.32882700 8.16410800
  C   4.61489900 7.99324000 8.16410800
  C   3.07660000 7.10510300 10.67614100
  C   4.61489900 9.76951600 10.67614100
  C   3.07660000 5.32882700 13.18817400
  C   4.61489900 7.99324000 13.18817400
  C   3.07660000 8.88137800 15.70020700
  C   4.61489900 6.21696500 15.70020700
  C   3.07660000 5.32882700 18.21224000
  C   4.61489900 7.99324000 18.21224000
  C   3.07660000 7.10510300 20.72427300
  C   4.61489900 9.76951600 20.72427300
  C   3.07660000 5.32882700 23.23630600
  C   4.61489900 7.99324000 23.23630600
  C   3.07660000 8.88137800 25.74833900
  C   4.61489900 6.21696500 25.74833900
  C   3.07660000 5.32882700 28.26037200
  C   4.61489900 7.99324000 28.26037200
  C   3.07660000 12.43392900 0.62800800
  C   4.61489900 15.09834300 0.62800800
  C   3.07660000 10.65765400 3.14004100
  C   4.61489900 13.32206700 3.14004100
  C   3.07660000 14.21020500 5.65207400
  C   4.61489900 11.54579200 5.65207400
  C   3.07660000 10.65765400 8.16410800
  C   4.61489900 13.32206700 8.16410800
  C   3.07660000 12.43392900 10.67614100
  C   4.61489900 15.09834300 10.67614100
  C   3.07660000 10.65765400 13.18817400
  C   4.61489900 13.32206700 13.18817400
  C   3.07660000 14.21020500 15.70020700
  C   4.61489900 11.54579200 15.70020700
  C   3.07660000 10.65765400 18.21224000
  C   4.61489900 13.32206700 18.21224000
  C   3.07660000 12.43392900 20.72427300
  C   4.61489900 15.09834300 20.72427300
  C   3.07660000 10.65765400 23.23630600
  C   4.61489900 13.32206700 23.23630600
  C   3.07660000 14.21020500 25.74833900
  C   4.61489900 11.54579200 25.74833900
  C   3.07660000 10.65765400 28.26037200
  C   4.61489900 13.32206700 28.26037200
  C   3.07660000 17.76275600 0.62800800
  C   4.61489900 20.42717000 0.62800800
  C   3.07660000 15.98648100 3.14004100
  C   4.61489900 18.65089400 3.14004100
  C   3.07660000 19.53903200 5.65207400
  C   4.61489900 16.87461800 5.65207400
  C   3.07660000 15.98648100 8.16410800
  C   4.61489900 18.65089400 8.16410800
  C   3.07660000 17.76275600 10.67614100
  C   4.61489900 20.42717000 10.67614100
  C   3.07660000 15.98648100 13.18817400
  C   4.61489900 18.65089400 13.18817400
  C   3.07660000 19.53903200 15.70020700
  C   4.61489900 16.87461800 15.70020700
  C   3.07660000 15.98648100 18.21224000
  C   4.61489900 18.65089400 18.21224000
  C   3.07660000 17.76275600 20.72427300
  C   4.61489900 20.42717000 20.72427300
  C   3.07660000 15.98648100 23.23630600
  C   4.61489900 18.65089400 23.23630600
  C   3.07660000 19.53903200 25.74833900
  C   4.61489900 16.87461800 25.74833900
  C   3.07660000 15.98648100 28.26037200
  C   4.61489900 18.65089400 28.26037200
  C   6.15319900 1.77627600 0.62800800
  C   7.69149900 4.44068900 0.62800800
  C   6.15319900 0.00000000 3.14004100
  C   7.69149900 2.66441300 3.14004100
  C   6.15319900 3.55255100 5.65207400
  C   7.69149900 0.88813800 5.65207400
  C   6.15319900 0.00000000 8.16410800
  C   7.69149900 2.66441300 8.16410800
  C   6.15319900 1.77627600 10.67614100
  C   7.69149900 4.44068900 10.67614100
  C   6.15319900 0.00000000 13.18817400
  C   7.69149900 2.66441300 13.18817400
  C   6.15319900 3.55255100 15.70020700
  C   7.69149900 0.88813800 15.70020700
  C   6.15319900 0.00000000 18.21224000
  C   7.69149900 2.66441300 18.21224000
  C   6.15319900 1.77627600 20.72427300
  C   7.69149900 4.44068900 20.72427300
  C   6.15319900 0.00000000 23.23630600
  C   7.69149900 2.66441300 23.23630600
  C   6.15319900 3.55255100 25.74833900
  C   7.69149900 0.88813800 25.74833900
  C   6.15319900 0.00000000 28.26037200
  C   7.69149900 2.66441300 28.26037200
  C   6.15319900 7.10510300 0.62800800
  C   7.69149900 9.76951600 0.62800800
  C   6.15319900 5.32882700 3.14004100
  C   7.69149900 7.99324000 3.14004100
  C   6.15319900 8.88137800 5.65207400
  C   7.69149900 6.21696500 5.65207400
  C   6.15319900 5.32882700 8.16410800
  C   7.69149900 7.99324000 8.16410800
  C   6.15319900 7.10510300 10.67614100
  C   7.69149900 9.76951600 10.67614100
  C   6.15319900 5.32882700 13.18817400
  C   7.69149900 7.99324000 13.18817400
  C   6.15319900 8.88137800 15.70020700
  C   7.69149900 6.21696500 15.70020700
  C   6.15319900 5.32882700 18.21224000
  C   7.69149900 7.99324000 18.21224000
  C   6.15319900 7.10510300 20.72427300
  C   7.69149900 9.76951600 20.72427300
  C   6.15319900 5.32882700 23.23630600
  C   7.69149900 7.99324000 23.23630600
  C   6.15319900 8.88137800 25.74833900
  C   7.69149900 6.21696500 25.74833900
  C   6.15319900 5.32882700 28.26037200
  C   7.69149900 7.99324000 28.26037200
  C   6.15319900 12.43392900 0.62800800
  C   7.69149900 15.09834300 0.62800800
  C   6.15319900 10.65765400 3.14004100
  C   7.69149900 13.32206700 3.14004100
  C   6.15319900 14.21020500 5.65207400
  C   7.69149900 11.54579200 5.65207400